
ASes= { 1, 2, 3, 4, 5, 6, 7, 8, 9, 10, 11 } ;


Objects= { 1, 2, 3, 4, 5, 6, 7, 8, 9, 10, 11, 12, 13, 14, 15, 16, 17, 18, 19, 20, 21, 22, 23, 24, 25, 26, 27, 28, 29, 30, 31, 32, 33, 34, 35, 36, 37, 38, 39, 40, 41, 42, 43, 44, 45, 46, 47, 48, 49, 50, 51, 52, 53, 54, 55, 56, 57, 58, 59, 60, 61, 62, 63, 64, 65, 66, 67, 68, 69, 70, 71, 72, 73, 74, 75, 76, 77, 78, 79, 80, 81, 82, 83, 84, 85, 86, 87, 88, 89, 90, 91, 92, 93, 94, 95, 96, 97, 98, 99, 100 } ;


QualityLevels= { 0, 1, 2, 3, 4, 5 } ;

Arcs = {<2,1,490000>, <1,2,490000>, <11,1,490000>, <1,11,490000>, <11,2,490000>, <2,11,490000>, <11,10,490000>, <10,11,490000>, <3,2,490000>, <2,3,490000>, <4,3,490000>, <3,4,490000>, <5,4,490000>, <4,5,490000>, <6,5,490000>, <5,6,490000>, <7,6,490000>, <6,7,490000>, <8,4,490000>, <4,8,490000>, <8,7,490000>, <7,8,490000>, <9,3,490000>, <3,9,490000>, <9,8,490000>, <8,9,490000>, <10,9,490000>, <9,10,490000>};


RatePerQuality= [ 0  300  700  1500  2500  3500 ] ;


CacheSpacePerQuality= [ 10000  11.25  26.25  56.25  93.75  131.25 ] ;


UtilityPerQuality= [ 0  0.2  0.4  0.6  0.8  1 ] ;


ObjectsPublishedByProducers=[ [ 0  0  0  0  0  0  0  1  0  0  0 ]  [ 0  0  0  0  0  0  0  1  0  0  0 ]  [ 0  0  0  0  0  0  0  1  0  0  0 ]  [ 0  0  0  0  0  0  0  1  0  0  0 ]  [ 0  0  0  0  0  0  0  1  0  0  0 ]  [ 0  0  0  0  0  0  0  1  0  0  0 ]  [ 0  0  0  0  0  0  0  1  0  0  0 ]  [ 0  0  0  0  0  0  0  1  0  0  0 ]  [ 0  0  0  0  0  0  0  1  0  0  0 ]  [ 0  0  0  0  0  0  0  1  0  0  0 ]  [ 0  0  0  0  0  0  0  1  0  0  0 ]  [ 0  0  0  0  0  0  0  1  0  0  0 ]  [ 0  0  0  0  0  0  0  1  0  0  0 ]  [ 0  0  0  0  0  0  0  1  0  0  0 ]  [ 0  0  0  0  0  0  0  1  0  0  0 ]  [ 0  0  0  0  0  0  0  1  0  0  0 ]  [ 0  0  0  0  0  0  0  1  0  0  0 ]  [ 0  0  0  0  0  0  0  1  0  0  0 ]  [ 0  0  0  0  0  0  0  1  0  0  0 ]  [ 0  0  0  0  0  0  0  1  0  0  0 ]  [ 0  0  0  0  0  0  0  1  0  0  0 ]  [ 0  0  0  0  0  0  0  1  0  0  0 ]  [ 0  0  0  0  0  0  0  1  0  0  0 ]  [ 0  0  0  0  0  0  0  1  0  0  0 ]  [ 0  0  0  0  0  0  0  1  0  0  0 ]  [ 0  0  0  0  0  0  0  1  0  0  0 ]  [ 0  0  0  0  0  0  0  1  0  0  0 ]  [ 0  0  0  0  0  0  0  1  0  0  0 ]  [ 0  0  0  0  0  0  0  1  0  0  0 ]  [ 0  0  0  0  0  0  0  1  0  0  0 ]  [ 0  0  0  0  0  0  0  1  0  0  0 ]  [ 0  0  0  0  0  0  0  1  0  0  0 ]  [ 0  0  0  0  0  0  0  1  0  0  0 ]  [ 0  0  0  0  0  0  0  1  0  0  0 ]  [ 0  0  0  0  0  0  0  1  0  0  0 ]  [ 0  0  0  0  0  0  0  1  0  0  0 ]  [ 0  0  0  0  0  0  0  1  0  0  0 ]  [ 0  0  0  0  0  0  0  1  0  0  0 ]  [ 0  0  0  0  0  0  0  1  0  0  0 ]  [ 0  0  0  0  0  0  0  1  0  0  0 ]  [ 0  0  0  0  0  0  0  1  0  0  0 ]  [ 0  0  0  0  0  0  0  1  0  0  0 ]  [ 0  0  0  0  0  0  0  1  0  0  0 ]  [ 0  0  0  0  0  0  0  1  0  0  0 ]  [ 0  0  0  0  0  0  0  1  0  0  0 ]  [ 0  0  0  0  0  0  0  1  0  0  0 ]  [ 0  0  0  0  0  0  0  1  0  0  0 ]  [ 0  0  0  0  0  0  0  1  0  0  0 ]  [ 0  0  0  0  0  0  0  1  0  0  0 ]  [ 0  0  0  0  0  0  0  1  0  0  0 ]  [ 0  0  0  0  0  0  0  1  0  0  0 ]  [ 0  0  0  0  0  0  0  1  0  0  0 ]  [ 0  0  0  0  0  0  0  1  0  0  0 ]  [ 0  0  0  0  0  0  0  1  0  0  0 ]  [ 0  0  0  0  0  0  0  1  0  0  0 ]  [ 0  0  0  0  0  0  0  1  0  0  0 ]  [ 0  0  0  0  0  0  0  1  0  0  0 ]  [ 0  0  0  0  0  0  0  1  0  0  0 ]  [ 0  0  0  0  0  0  0  1  0  0  0 ]  [ 0  0  0  0  0  0  0  1  0  0  0 ]  [ 0  0  0  0  0  0  0  1  0  0  0 ]  [ 0  0  0  0  0  0  0  1  0  0  0 ]  [ 0  0  0  0  0  0  0  1  0  0  0 ]  [ 0  0  0  0  0  0  0  1  0  0  0 ]  [ 0  0  0  0  0  0  0  1  0  0  0 ]  [ 0  0  0  0  0  0  0  1  0  0  0 ]  [ 0  0  0  0  0  0  0  1  0  0  0 ]  [ 0  0  0  0  0  0  0  1  0  0  0 ]  [ 0  0  0  0  0  0  0  1  0  0  0 ]  [ 0  0  0  0  0  0  0  1  0  0  0 ]  [ 0  0  0  0  0  0  0  1  0  0  0 ]  [ 0  0  0  0  0  0  0  1  0  0  0 ]  [ 0  0  0  0  0  0  0  1  0  0  0 ]  [ 0  0  0  0  0  0  0  1  0  0  0 ]  [ 0  0  0  0  0  0  0  1  0  0  0 ]  [ 0  0  0  0  0  0  0  1  0  0  0 ]  [ 0  0  0  0  0  0  0  1  0  0  0 ]  [ 0  0  0  0  0  0  0  1  0  0  0 ]  [ 0  0  0  0  0  0  0  1  0  0  0 ]  [ 0  0  0  0  0  0  0  1  0  0  0 ]  [ 0  0  0  0  0  0  0  1  0  0  0 ]  [ 0  0  0  0  0  0  0  1  0  0  0 ]  [ 0  0  0  0  0  0  0  1  0  0  0 ]  [ 0  0  0  0  0  0  0  1  0  0  0 ]  [ 0  0  0  0  0  0  0  1  0  0  0 ]  [ 0  0  0  0  0  0  0  1  0  0  0 ]  [ 0  0  0  0  0  0  0  1  0  0  0 ]  [ 0  0  0  0  0  0  0  1  0  0  0 ]  [ 0  0  0  0  0  0  0  1  0  0  0 ]  [ 0  0  0  0  0  0  0  1  0  0  0 ]  [ 0  0  0  0  0  0  0  1  0  0  0 ]  [ 0  0  0  0  0  0  0  1  0  0  0 ]  [ 0  0  0  0  0  0  0  1  0  0  0 ]  [ 0  0  0  0  0  0  0  1  0  0  0 ]  [ 0  0  0  0  0  0  0  1  0  0  0 ]  [ 0  0  0  0  0  0  0  1  0  0  0 ]  [ 0  0  0  0  0  0  0  1  0  0  0 ]  [ 0  0  0  0  0  0  0  1  0  0  0 ]  [ 0  0  0  0  0  0  0  1  0  0  0 ]  [ 0  0  0  0  0  0  0  1  0  0  0 ] ];

ObjRequests = {  <1,5,158>, <2,5,158>, <3,5,29>, <4,5,20>, <5,5,8>, <6,5,18>, <7,5,33>, <8,5,18>, <9,5,25>, <10,5,1>, <11,5,28>, <12,5,31>, <13,5,18>, <14,5,2>, <15,5,9>, <16,5,8>, <17,5,13>, <18,5,7>, <19,5,1>, <20,5,1>, <22,5,11>, <23,5,5>, <24,5,5>, <25,5,9>, <26,5,4>, <27,5,6>, <28,5,3>, <29,5,3>, <30,5,2>, <31,5,5>, <32,5,4>, <33,5,1>, <34,5,10>, <35,5,4>, <36,5,2>, <37,5,16>, <38,5,11>, <39,5,6>, <40,5,12>, <41,5,1>, <43,5,7>, <44,5,4>, <49,5,2>, <50,5,11>, <51,5,4>, <54,5,5>, <55,5,2>, <56,5,3>, <57,5,4>, <58,5,1>, <59,5,7>, <60,5,1>, <61,5,3>, <62,5,2>, <63,5,3>, <65,5,1>, <67,5,1>, <68,5,1>, <71,5,1>, <73,5,3>, <74,5,4>, <75,5,1>, <76,5,3>, <77,5,5>, <78,5,4>, <79,5,2>, <80,5,1>, <81,5,2>, <82,5,1>, <83,5,1>, <84,5,3>, <85,5,1>, <86,5,1>, <87,5,2>, <88,5,5>, <90,5,5>, <91,5,2>, <92,5,4>, <94,5,1>, <95,5,3>, <96,5,4>, <97,5,3>, <98,5,4>, <99,5,1>, <1,6,68>, <2,6,18>, <3,6,5>, <4,6,3>, <5,6,28>, <6,6,9>, <7,6,3>, <8,6,37>, <9,6,31>, <10,6,18>, <11,6,16>, <12,6,25>, <13,6,18>, <14,6,6>, <15,6,16>, <16,6,9>, <17,6,4>, <18,6,7>, <19,6,1>, <20,6,3>, <21,6,5>, <22,6,17>, <23,6,4>, <24,6,5>, <25,6,8>, <26,6,4>, <27,6,1>, <28,6,11>, <29,6,3>, <30,6,2>, <31,6,4>, <32,6,8>, <33,6,15>, <34,6,4>, <35,6,3>, <36,6,6>, <37,6,1>, <38,6,4>, <39,6,2>, <40,6,5>, <41,6,2>, <42,6,11>, <43,6,4>, <44,6,1>, <45,6,2>, <46,6,4>, <47,6,1>, <48,6,3>, <49,6,4>, <50,6,1>, <51,6,1>, <53,6,11>, <55,6,3>, <56,6,3>, <58,6,2>, <59,6,2>, <60,6,4>, <61,6,3>, <62,6,3>, <63,6,1>, <64,6,6>, <65,6,2>, <68,6,3>, <69,6,2>, <70,6,3>, <71,6,1>, <72,6,4>, <74,6,3>, <77,6,1>, <78,6,3>, <79,6,1>, <80,6,1>, <81,6,4>, <82,6,4>, <83,6,3>, <84,6,12>, <86,6,1>, <87,6,2>, <88,6,6>, <90,6,2>, <91,6,1>, <92,6,2>, <93,6,1>, <94,6,1>, <95,6,1>, <96,6,4>, <97,6,1>, <98,6,3>, <100,6,3>, <1,7,169>, <2,7,111>, <3,7,155>, <4,7,30>, <5,7,18>, <6,7,25>, <7,7,24>, <8,7,4>, <9,7,4>, <10,7,25>, <11,7,17>, <12,7,3>, <13,7,1>, <14,7,33>, <15,7,1>, <16,7,17>, <17,7,6>, <18,7,17>, <19,7,4>, <20,7,6>, <21,7,6>, <22,7,1>, <23,7,8>, <24,7,8>, <25,7,1>, <26,7,12>, <27,7,18>, <28,7,3>, <29,7,1>, <30,7,1>, <31,7,4>, <32,7,6>, <33,7,1>, <34,7,1>, <35,7,3>, <36,7,2>, <37,7,2>, <38,7,2>, <39,7,1>, <40,7,3>, <41,7,1>, <42,7,3>, <43,7,4>, <44,7,1>, <46,7,1>, <47,7,1>, <48,7,10>, <49,7,3>, <50,7,7>, <51,7,9>, <52,7,11>, <53,7,3>, <54,7,5>, <55,7,3>, <56,7,1>, <57,7,5>, <58,7,4>, <59,7,1>, <60,7,5>, <61,7,2>, <62,7,1>, <63,7,8>, <64,7,4>, <65,7,3>, <66,7,3>, <67,7,5>, <68,7,3>, <70,7,2>, <71,7,3>, <72,7,1>, <73,7,2>, <74,7,1>, <75,7,1>, <76,7,1>, <77,7,1>, <79,7,7>, <80,7,1>, <81,7,1>, <82,7,1>, <83,7,1>, <84,7,1>, <85,7,2>, <86,7,1>, <88,7,5>, <89,7,1>, <90,7,2>, <91,7,7>, <92,7,5>, <93,7,6>, <94,7,1>, <96,7,3>, <97,7,2>, <98,7,2>, <99,7,3>, <100,7,2>, <1,1,126>, <2,1,71>, <3,1,48>, <4,1,12>, <5,1,109>, <6,1,2>, <7,1,30>, <8,1,26>, <9,1,7>, <10,1,8>, <11,1,7>, <12,1,17>, <13,1,13>, <14,1,8>, <15,1,11>, <16,1,2>, <17,1,15>, <18,1,17>, <19,1,22>, <20,1,24>, <21,1,15>, <22,1,4>, <23,1,9>, <24,1,11>, <25,1,12>, <26,1,14>, <28,1,3>, <29,1,1>, <30,1,5>, <31,1,1>, <32,1,7>, <33,1,7>, <34,1,2>, <36,1,1>, <39,1,3>, <40,1,2>, <41,1,2>, <42,1,1>, <43,1,1>, <44,1,3>, <45,1,3>, <46,1,8>, <47,1,11>, <48,1,4>, <49,1,1>, <50,1,1>, <51,1,1>, <53,1,4>, <54,1,6>, <55,1,9>, <56,1,1>, <57,1,1>, <59,1,1>, <61,1,8>, <62,1,1>, <63,1,3>, <64,1,2>, <65,1,3>, <66,1,2>, <67,1,8>, <68,1,8>, <69,1,1>, <70,1,3>, <72,1,1>, <73,1,2>, <75,1,2>, <77,1,1>, <78,1,1>, <80,1,3>, <81,1,4>, <83,1,3>, <85,1,4>, <86,1,2>, <87,1,1>, <88,1,1>, <91,1,1>, <93,1,2>, <94,1,5>, <95,1,1>, <96,1,3>, <97,1,5>, <98,1,4>, <99,1,4>, <1,10,235>, <2,10,43>, <3,10,30>, <4,10,133>, <5,10,9>, <6,10,66>, <7,10,7>, <8,10,14>, <9,10,18>, <10,10,18>, <11,10,1>, <12,10,1>, <13,10,13>, <14,10,2>, <15,10,16>, <16,10,14>, <17,10,5>, <18,10,5>, <19,10,1>, <20,10,4>, <21,10,7>, <22,10,1>, <23,10,8>, <24,10,2>, <25,10,11>, <27,10,9>, <28,10,2>, <29,10,12>, <30,10,13>, <31,10,5>, <32,10,5>, <34,10,3>, <35,10,18>, <36,10,4>, <37,10,3>, <38,10,4>, <39,10,9>, <40,10,2>, <41,10,17>, <42,10,2>, <43,10,2>, <44,10,2>, <45,10,3>, <46,10,1>, <47,10,1>, <49,10,2>, <50,10,1>, <51,10,1>, <52,10,3>, <53,10,1>, <54,10,1>, <55,10,8>, <56,10,8>, <57,10,3>, <58,10,8>, <59,10,3>, <60,10,1>, <61,10,1>, <62,10,4>, <63,10,3>, <64,10,2>, <65,10,7>, <66,10,7>, <67,10,3>, <68,10,1>, <69,10,5>, <70,10,3>, <71,10,2>, <72,10,3>, <74,10,4>, <75,10,3>, <76,10,2>, <77,10,2>, <78,10,2>, <79,10,5>, <80,10,3>, <81,10,1>, <82,10,1>, <83,10,2>, <84,10,1>, <85,10,1>, <86,10,2>, <89,10,2>, <90,10,5>, <93,10,2>, <94,10,3>, <96,10,2>, <97,10,2>, <98,10,4> };

MaxCacheStorageAtSingleAS= [ 131.25  131.25  131.25  131.25  131.25  131.25  131.25  131.25  131.25  131.25  131.25 ] ;

MaxCacheStorage = 1443.75 ;
SolutionGap = 0.01 ;
